0 0 0 0
0 1 0 0
0 2 2 0
0 3 2 0
0 4 1 2
0 5 2 5
0 6 0 11
0 7 1 18
0 8 0 18
0 9 2 6
0 10 0 21
0 11 1 18
0 12 0 20
0 13 2 21
0 14 1 28
0 15 1 26
0 16 2 30
0 17 2 9
0 18 2 11
0 19 2 32
0 20 0 30
0 21 2 22
0 22 1 18
0 23 2 22
0 24 1 37
0 25 0 32
0 26 2 34
0 27 1 34
0 28 1 38
0 29 2 38
0 30 0 42
0 31 0 44
